c A SAT instance generated from a 3-CNF formula that had 28 clauses and 7 variables
p cnf 7 28
5 -3 6 0
-1 -3 -2 0
1 5 -4 0
5 -4 6 0
1 6 -4 0
7 6 2 0
-4 1 -2 0
3 5 2 0
-2 -5 3 0
3 5 -6 0
-7 -2 6 0
-6 1 3 0
-7 -1 -4 0
2 -3 1 0
-6 -2 -3 0
-1 5 6 0
7 3 -4 0
-3 -7 -4 0
-3 6 4 0
3 -5 -6 0
-1 -2 7 0
-7 -2 3 0
5 4 -1 0
3 -2 4 0
5 -1 -6 0
5 2 -6 0
-2 -5 1 0
-5 -2 -7 0
